(set-logic QF_BV)
(declare-fun _substvar_2315_ () (_ BitVec 8))
(declare-fun _substvar_444_ () (_ BitVec 8))
(declare-fun _substvar_609_ () (_ BitVec 8))
(declare-fun _substvar_2309_ () (_ BitVec 8))
(declare-fun _substvar_446_ () (_ BitVec 8))
(declare-fun _substvar_568_ () (_ BitVec 8))
(declare-fun _substvar_2311_ () (_ BitVec 8))
(declare-fun _substvar_2328_ () (_ BitVec 8))
(declare-fun _substvar_554_ () (_ BitVec 8))
(declare-fun _substvar_2765_ () Bool)
(declare-fun _substvar_504_ () (_ BitVec 49))
(declare-fun _substvar_2905_ () (_ BitVec 8))
(declare-fun _substvar_522_ () (_ BitVec 8))
(declare-fun _substvar_579_ () (_ BitVec 8))
(declare-fun _substvar_445_ () (_ BitVec 8))
(declare-fun _substvar_447_ () (_ BitVec 8))
(declare-fun _substvar_590_ () (_ BitVec 8))
(declare-fun _substvar_503_ () (_ BitVec 8))
(declare-fun _substvar_540_ () (_ BitVec 49))
(declare-fun _substvar_2778_ () Bool)
(declare-fun _substvar_448_ () (_ BitVec 8))
(declare-fun _substvar_551_ () (_ BitVec 8))
(declare-fun _substvar_461_ () (_ BitVec 8))
(assert (let ((?v_12 (= _substvar_503_ _substvar_579_)) (?v_0 (= _substvar_522_ _substvar_448_)) (?v_1 (= _substvar_461_ _substvar_447_)) (?v_2 (= _substvar_551_ _substvar_446_)) (?v_3 (= _substvar_2328_ _substvar_445_)) (?v_4 (= _substvar_568_ _substvar_444_)) (?v_7 (= _substvar_522_ (_ bv1 8))) (?v_22 ((_ extract 31 24) _substvar_504_)) (?v_23 ((_ extract 23 16) _substvar_504_)) (?v_28 (= _substvar_554_ _substvar_446_)) (?v_35 (= _substvar_554_ (_ bv1 8))) (?v_61 (= _substvar_590_ _substvar_579_)) (?v_49 (= _substvar_609_ _substvar_448_)) (?v_50 (= _substvar_2315_ _substvar_447_)) (?v_51 (= _substvar_2905_ _substvar_446_)) (?v_52 (= _substvar_2311_ _substvar_445_)) (?v_53 (= _substvar_2309_ _substvar_444_)) (?v_57 (= _substvar_2315_ (_ bv1 8))) (?v_58 (= _substvar_2905_ (_ bv1 8))) (?v_59 (= _substvar_2311_ (_ bv1 8))) (?v_65 ((_ extract 48 41) _substvar_540_))) (and ?v_12 (ite _substvar_2765_ (and true ?v_0 ?v_1 ?v_2 ?v_3 ?v_4) ?v_7) ?v_12 true (ite _substvar_2778_ (= _substvar_504_ (concat (concat (concat (concat (concat (_ bv0 9) _substvar_522_) _substvar_461_) _substvar_551_) _substvar_2328_) _substvar_568_)) (= _substvar_504_ (concat (concat (concat (concat (_ bv0 17) _substvar_551_) _substvar_461_) _substvar_522_) _substvar_503_))) (ite _substvar_2778_ (and true true true true (= (_ bv0 8) ?v_23) true true) (and true true true (= (_ bv0 8) ?v_22) true true true)) true true (ite _substvar_2765_ (and true true true ?v_28 true true) true) true (and true true true ?v_35 true true) true true true ?v_61 (ite _substvar_2765_ (and true ?v_49 ?v_50 ?v_51 ?v_52 ?v_53) (and true true ?v_57 ?v_58 ?v_59 true)) ?v_61 true (= _substvar_540_ (concat (concat (concat (concat (concat (concat _substvar_590_ _substvar_609_) (_ bv0 1)) _substvar_2315_) _substvar_2905_) _substvar_2311_) _substvar_2309_)) (= (_ bv0 8) ?v_65) true true)))
(check-sat)
(exit)
